p cnf 104 166
-1 17 20 34 63 64 79 99 101 0 
-2 -3 101 0 
-4 37 -5 32 40 73 77 101 0 
-5 32 40 73 77 101 0 
-6 68 -5 32 40 73 77 101 0 
-7 30 58 94 102 -19 -21 -53 -86 -88 0 
-8 42 50 102 -19 -21 -53 -86 -88 0 
-9 11 102 -19 -21 -53 -86 -88 0 
-10 102 -19 -21 -53 -86 -88 0 
-11 9 102 -19 -21 -53 -86 -88 0 
-12 -13 -14 47 103 0 
-8 42 50 -15 18 23 49 90 103 0 
-16 103 0 
-14 47 -17 1 20 34 63 64 79 99 102 -19 -21 -53 -86 -88 0 
-18 15 23 49 90 -19 21 53 86 88 103 0 
-12 -16 -20 1 17 34 63 64 79 99 103 0 
-21 19 53 86 88 103 0 
-22 27 57 62 65 71 78 93 103 0 
-23 15 18 49 90 103 0 
-12 102 -19 -21 -53 -86 -88 0 
-24 72 102 -19 -21 -53 -86 -88 0 
-25 103 0 
-14 47 -25 103 0 
-19 21 53 86 88 -26 103 0 
-27 22 57 62 65 71 78 93 102 -19 -21 -53 -86 -88 0 
-28 -29 102 -19 -21 -53 -86 -88 0 
-30 7 58 94 -31 75 102 -19 -21 -53 -86 -88 0 
-32 5 40 73 77 102 -19 -21 -53 -86 -88 0 
-33 -34 1 17 20 63 64 79 99 102 -19 -21 -53 -86 -88 0 
-35 -36 95 -37 4 103 0 
-27 22 57 62 65 71 78 93 -12 -38 -39 97 102 -19 -21 -53 -86 -88 0 
-37 4 103 0 
-40 5 32 73 77 102 -19 -21 -53 -86 -88 0 
-8 42 50 103 0 
-41 55 -38 102 -19 -21 -53 -86 -88 0 
-36 95 -5 32 40 73 77 101 0 
-3 101 0 
-42 8 50 -16 102 -19 -21 -53 -86 -88 0 
-24 72 -16 102 -19 -21 -53 -86 -88 0 
-35 -43 48 103 0 
-14 47 -43 48 103 0 
-36 95 -43 48 103 0 
-44 -16 102 -19 -21 -53 -86 -88 0 
-16 102 -19 -21 -53 -86 -88 0 
-45 -19 21 53 86 88 -43 48 103 0 
-43 48 103 0 
-46 102 -19 -21 -53 -86 -88 0 
-37 4 -47 14 -48 43 103 0 
-49 15 18 23 90 103 0 
-38 -47 14 -50 8 42 103 0 
-36 95 -16 -51 103 0 
-38 -45 -22 27 57 62 65 71 78 93 102 -19 -21 -53 -86 -88 0 
-12 -36 95 -40 5 32 73 77 102 -19 -21 -53 -86 -88 0 
-35 -38 -52 102 -19 -21 -53 -86 -88 0 
-16 -2 103 0 
-53 19 21 86 88 103 0 
-54 101 0 
-24 72 -40 5 32 73 77 -12 102 -19 -21 -53 -86 -88 0 
-38 -36 95 -49 15 18 23 90 -16 103 0 
-12 -8 42 50 102 -19 -21 -53 -86 -88 0 
-45 -55 41 -40 5 32 73 77 102 -19 -21 -53 -86 -88 0 
-38 -45 -56 102 -19 -21 -53 -86 -88 0 
-37 4 -35 -24 72 -48 43 103 0 
-3 -4 37 101 0 
-57 22 27 62 65 71 78 93 101 0 
-58 7 30 94 -3 101 0 
-3 -4 37 -59 101 0 
-60 102 -19 -21 -53 -86 -88 0 
-61 -17 1 20 34 63 64 79 99 102 -19 -21 -53 -86 -88 0 
-38 -8 42 50 102 -19 -21 -53 -86 -88 0 
-35 -46 102 -19 -21 -53 -86 -88 0 
-22 27 57 62 65 71 78 93 102 -19 -21 -53 -86 -88 0 
-62 22 27 57 65 71 78 93 -63 1 17 20 34 64 79 99 103 0 
-64 1 17 20 34 63 79 99 -7 30 58 94 103 0 
-65 22 27 57 62 71 78 93 -66 102 -19 -21 -53 -86 -88 0 
-22 27 57 62 65 71 78 93 -64 1 17 20 34 63 79 99 -67 81 102 -19 -21 -53 -86 -88 0 
-45 -68 6 -56 102 -19 -21 -53 -86 -88 0 
-55 41 102 -19 -21 -53 -86 -88 0 
-69 -16 103 0 
-30 7 58 94 -70 102 -19 -21 -53 -86 -88 0 
-12 -45 -55 41 102 -19 -21 -53 -86 -88 0 
-14 47 -71 22 27 57 62 65 78 93 103 0 
-16 -26 103 0 
-38 -15 18 23 49 90 -22 27 57 62 65 71 78 93 103 0 
-52 102 -19 -21 -53 -86 -88 0 
-38 -24 72 -50 8 42 103 0 
-35 -38 -46 102 -19 -21 -53 -86 -88 0 
-35 -38 -37 4 103 0 
-4 37 102 -19 -21 -53 -86 -88 0 
-57 22 27 62 65 71 78 93 102 -19 -21 -53 -86 -88 0 
-28 102 -19 -21 -53 -86 -88 0 
-27 22 57 62 65 71 78 93 -70 102 -19 -21 -53 -86 -88 0 
-14 47 -72 24 103 0 
-73 5 32 40 77 103 0 
-74 102 -19 -21 -53 -86 -88 0 
-38 -75 31 102 -19 -21 -53 -86 -88 0 
-38 -57 22 27 62 65 71 78 93 101 0 
-57 22 27 62 65 71 78 93 -2 101 0 
-45 -57 22 27 62 65 71 78 93 101 0 
-50 8 42 103 0 
-76 103 0 
-38 -36 95 -55 41 102 -19 -21 -53 -86 -88 0 
-37 4 -16 -47 14 103 0 
-12 -45 -40 5 32 73 77 102 -19 -21 -53 -86 -88 0 
-36 95 -24 72 -77 5 32 40 73 103 0 
-38 -45 -8 42 50 103 0 
-12 -42 8 50 -25 102 -19 -21 -53 -86 -88 0 
-16 -78 22 27 57 62 65 71 93 103 0 
-38 -16 -18 15 23 49 90 102 -19 -21 -53 -86 -88 0 
-26 102 -19 -21 -53 -86 -88 0 
-79 1 17 20 34 63 64 99 102 -19 -21 -53 -86 -88 0 
-69 102 -19 -21 -53 -86 -88 0 
-12 -35 -80 -81 67 102 -19 -21 -53 -86 -88 0 
-24 72 -16 -78 22 27 57 62 65 71 93 102 -19 -21 -53 -86 -88 0 
-25 -14 47 102 -19 -21 -53 -86 -88 0 
-51 103 0 
-82 102 -19 -21 -53 -86 -88 0 
-16 -37 4 103 0 
-12 -45 -56 102 -19 -21 -53 -86 -88 0 
-37 4 -68 6 -16 103 0 
-36 95 -12 -8 42 50 103 0 
-83 103 0 
-84 102 -19 -21 -53 -86 -88 0 
-14 47 -85 103 0 
-38 102 -19 -21 -53 -86 -88 0 
-35 -38 -3 101 0 
-5 32 40 73 77 -59 101 0 
-86 19 21 53 88 103 0 
-38 -5 32 40 73 77 102 -19 -21 -53 -86 -88 0 
-37 4 -16 103 0 
-45 -1 17 20 34 63 64 79 99 101 0 
-57 22 27 62 65 71 78 93 -1 17 20 34 63 64 79 99 101 0 
-12 -24 72 -50 8 42 103 0 
-26 -16 103 0 
-2 -50 8 42 103 0 
-35 -68 6 -55 41 102 -19 -21 -53 -86 -88 0 
-87 -28 102 -19 -21 -53 -86 -88 0 
-12 -38 -50 8 42 103 0 
-88 19 21 53 86 104 -7 -30 -58 -94 0 
-89 -8 42 50 103 0 
-25 -48 43 103 0 
-90 15 18 23 49 -91 102 -19 -21 -53 -86 -88 0 
-25 -16 -79 1 17 20 34 63 64 99 103 0 
-25 -92 102 -19 -21 -53 -86 -88 0 
-38 -36 95 -93 22 27 57 62 65 71 78 102 -19 -21 -53 -86 -88 0 
-16 -94 7 30 58 103 0 
-35 -38 -56 102 -19 -21 -53 -86 -88 0 
-12 -35 -55 41 102 -19 -21 -53 -86 -88 0 
-14 47 -95 36 103 0 
-38 -15 18 23 49 90 -8 42 50 103 0 
-45 -77 5 32 40 73 103 0 
-56 102 -19 -21 -53 -86 -88 0 
-36 95 -8 42 50 103 0 
-15 18 23 49 90 -96 103 0 
-72 24 -97 39 103 0 
-37 4 -16 -48 43 103 0 
-38 -57 22 27 62 65 71 78 93 102 -19 -21 -53 -86 -88 0 
-38 -4 37 102 -19 -21 -53 -86 -88 0 
-68 6 -8 42 50 103 0 
-98 -99 1 17 20 34 63 64 79 102 -19 -21 -53 -86 -88 0 
-35 -36 95 -46 102 -19 -21 -53 -86 -88 0 
-38 -36 95 -40 5 32 73 77 102 -19 -21 -53 -86 -88 0 
-19 21 53 86 88 103 0 
-100 102 -19 -21 -53 -86 -88 0 
-89 -13 102 -19 -21 -53 -86 -88 0 
-37 4 -35 -38 -16 103 0 
